118
0 21 88 28 4 64 2 47 7 104 
38 65 56 67 5 100 80 34 58 84 
30 110 94 33 116 117 1 92 68 99 
3 45 60 107 62 51 14 103 40 72 
105 17 36 106 71 93 73 55 87 97 
20 29 10 53 27 79 111 26 102 77 
90 91 70 74 42 54 46 18 109 12 
39 35 19 113 95 13 76 32 24 69 
86 44 115 43 89 85 23 75 41 114 
98 11 16 37 48 25 78 96 8 61 
15 59 22 112 83 50 31 101 66 9 
52 108 82 81 63 49 57 6 
